35
6
51
13
0
79
73
91
46
105
110
58
56
25
42
34
31
82
80
66
84
28
63
3
19
2
76
33
61
12
22
78
27
8
11
77
16
50
20
10
57
49
100
48
108
67
72
87
4
64
37
41
53
44
26
14
93
23
89
36
107
97
83
95
45
106
43
98
60
85
40
29
96
88
55
103
68
38
65
5
86
69
90
18
54
9
71
47
74
81
101
1
21
99
70
30
109
32
17
102
